Traveling Salesman Problem/TSP_generados/Aleatorio1621103574_16.tsp
NAME: Aleatorio1621103574_16.tsp
COMMENT: Randomly generated scenario
TYPE: TSP
DIMENSION: 16
EDGE_WEIGHT_TYPE: ATT
NODE_COORD_SECTION
1 24.0 24.52
2 4.09 30.8
3 8.5 2.84
4 38.33 44.5
5 2.37 6.76
6 36.46 47.98
7 10.45 42.26
8 38.4 11.19
9 35.63 16.28
10 7.46 38.86
11 29.19 31.18
12 40.97 11.34
13 11.38 8.28
14 8.97 34.06
15 17.51 39.45
16 0.17 38.88
