Traveling Salesman Problem/TSP_generados/Aleatorio1621103574_16.opt.tour
NAME: Aleatorio1621103574_16.opt.tour
COMMENT: Optimal solution for Aleatorio1621103574_16 (173.45977867390383)
TYPE: TOUR
DIMENSION: 16
TOUR_SECTION
1 9 12 8 13 3 5 2 14 16 10 7 15 6 4 11
-1
EOF
